c atoms: E(1,1) E(3,1) E(3,3) E(1,3) E(0,1) E(0,0) E(1,0) E(2,1) E(1,2) E(2,2) E(0,3) E(3,0) E(3,2) E(2,3) E(2,0) E(0,2)
p cnf 16 52
-6 0
-1 0
-10 0
-3 0
6 -6 0
5 -7 0
16 -15 0
11 -12 0
7 -5 0
1 -1 0
9 -8 0
4 -2 0
15 -16 0
8 -9 0
10 -10 0
14 -13 0
12 -11 0
2 -4 0
13 -14 0
3 -3 0
6 5 16 -11 0
6 5 11 -16 0
6 16 11 -5 0
5 16 11 -6 0
7 1 9 -4 0
7 1 4 -9 0
7 9 4 -1 0
1 9 4 -7 0
15 8 10 -14 0
15 8 14 -10 0
15 10 14 -8 0
8 10 14 -15 0
12 2 13 -3 0
12 2 3 -13 0
12 13 3 -2 0
2 13 3 -12 0
6 -5 -16 -11 0
5 -6 -16 -11 0
16 -6 -5 -11 0
11 -6 -5 -16 0
7 -1 -9 -4 0
1 -7 -9 -4 0
9 -7 -1 -4 0
4 -7 -1 -9 0
15 -8 -10 -14 0
8 -15 -10 -14 0
10 -15 -8 -14 0
14 -15 -8 -10 0
12 -2 -13 -3 0
2 -12 -13 -3 0
13 -12 -2 -3 0
3 -12 -2 -13 0
